NAME : d2103
COMMENT : Drilling problem (Reinelt)
TYPE : TSP
VEHICLES : 1
DIMENSION : 2103
EDGE_WEIGHT_TYPE : EUC_2D
NODE_COORD_SECTION
1 0 0
2 691.1 856.7
3 741.9 856.7
4 792.7 856.7
5 868.9 863.1
6 792.7 907.5
7 691.1 907.5
8 868.9 913.9
9 792.7 958.3
10 741.9 958.3
11 691.1 958.3
12 691.1 1618.7
13 741.9 1618.7
14 792.7 1618.7
15 792.7 1669.5
16 691.1 1669.5
17 691.1 1720.3
18 741.9 1720.3
19 792.7 1720.3
20 1097.5 2425.2
21 907 2412.5
22 830.8 2412.5
23 1034 2387.1
24 1059.4 2387.1
25 856.2 2374.4
26 830.8 2361.7
27 856.2 2349
28 830.8 2336.3
29 983.2 2336.3
30 1022.9 2336.3
31 1062.5 2336.3
32 1102.1 2336.3
33 1141.7 2336.3
34 1181.4 2336.3
35 1221 2336.3
36 1260.6 2336.3
37 1300.2 2336.3
38 1339.9 2336.3
39 1379.5 2336.3
40 1419.1 2336.3
41 1458.7 2336.3
42 1498.4 2336.3
43 1538 2336.3
44 1577.6 2336.3
45 1617.2 2336.3
46 1656.9 2336.3
47 1696.5 2336.3
48 1736.1 2336.3
49 1775.7 2336.3
50 1815.4 2336.3
51 1855 2336.3
52 1894.6 2336.3
53 1934.2 2336.3
54 1973.8 2336.3
55 2013.5 2336.3
56 2053.1 2336.3
57 2092.7 2336.3
58 2132.3 2336.3
59 2172 2336.3
60 2211.6 2336.3
61 2251.2 2336.3
62 2290.8 2336.3
63 2330.5 2336.3
64 2370.1 2336.3
65 2409.7 2336.3
66 2449.3 2336.3
67 2489 2336.3
68 2528.6 2336.3
69 2568.2 2336.3
70 2607.8 2336.3
71 2647.5 2336.3
72 856.2 2323.6
73 856.2 2298.2
74 983.2 2285.5
75 1022.9 2285.5
76 1062.5 2285.5
77 1102.1 2285.5
78 1141.7 2285.5
79 1181.4 2285.5
80 1221 2285.5
81 1260.6 2285.5
82 1300.2 2285.5
83 1339.9 2285.5
84 1379.5 2285.5
85 1419.1 2285.5
86 1458.7 2285.5
87 1498.4 2285.5
88 1538 2285.5
89 1577.6 2285.5
90 1617.2 2285.5
91 1656.9 2285.5
92 1696.5 2285.5
93 1736.1 2285.5
94 1775.7 2285.5
95 1815.4 2285.5
96 1855 2285.5
97 1894.6 2285.5
98 1934.2 2285.5
99 1973.8 2285.5
100 2013.5 2285.5
101 2053.1 2285.5
102 2092.7 2285.5
103 2132.3 2285.5
104 2172 2285.5
105 2211.6 2285.5
106 2251.2 2285.5
107 2290.8 2285.5
108 2330.5 2285.5
109 2370.1 2285.5
110 2409.7 2285.5
111 2449.3 2285.5
112 2489 2285.5
113 2528.6 2285.5
114 2568.2 2285.5
115 2607.8 2285.5
116 2647.5 2285.5
117 1059.4 2234.7
118 1034 2234.7
119 1034 2183.9
120 1059.4 2183.9
121 983.2 2133.1
122 1022.9 2133.1
123 1062.5 2133.1
124 1102.1 2133.1
125 1141.7 2133.1
126 1181.4 2133.1
127 1221 2133.1
128 1260.6 2133.1
129 1300.2 2133.1
130 1339.9 2133.1
131 1379.5 2133.1
132 1419.1 2133.1
133 1458.7 2133.1
134 1498.4 2133.1
135 1538 2133.1
136 1577.6 2133.1
137 1617.2 2133.1
138 1656.9 2133.1
139 1696.5 2133.1
140 1736.1 2133.1
141 1775.7 2133.1
142 1815.4 2133.1
143 1855 2133.1
144 1894.6 2133.1
145 1934.2 2133.1
146 1973.8 2133.1
147 2013.5 2133.1
148 2053.1 2133.1
149 2092.7 2133.1
150 2132.3 2133.1
151 2172 2133.1
152 2211.6 2133.1
153 2251.2 2133.1
154 2290.8 2133.1
155 2330.5 2133.1
156 2370.1 2133.1
157 2409.7 2133.1
158 2449.3 2133.1
159 2489 2133.1
160 2528.6 2133.1
161 2568.2 2133.1
162 2607.8 2133.1
163 2647.5 2133.1
164 2647.5 2082.3
165 2607.8 2082.3
166 2568.2 2082.3
167 2528.6 2082.3
168 2489 2082.3
169 2449.3 2082.3
170 2409.7 2082.3
171 2370.1 2082.3
172 2330.5 2082.3
173 2290.8 2082.3
174 2251.2 2082.3
175 2211.6 2082.3
176 2172 2082.3
177 2132.3 2082.3
178 2092.7 2082.3
179 2053.1 2082.3
180 2013.5 2082.3
181 1973.8 2082.3
182 1934.2 2082.3
183 1894.6 2082.3
184 1855 2082.3
185 1815.4 2082.3
186 1775.7 2082.3
187 1736.1 2082.3
188 1696.5 2082.3
189 1656.9 2082.3
190 1617.2 2082.3
191 1577.6 2082.3
192 1538 2082.3
193 1498.4 2082.3
194 1458.7 2082.3
195 1419.1 2082.3
196 1379.5 2082.3
197 1339.9 2082.3
198 1300.2 2082.3
199 1260.6 2082.3
200 1221 2082.3
201 1181.4 2082.3
202 1141.7 2082.3
203 1102.1 2082.3
204 1062.5 2082.3
205 1022.9 2082.3
206 983.2 2082.3
207 1034 2031.5
208 1059.4 2031.5
209 881.6 1993.4
210 1034 1980.7
211 1059.4 1980.7
212 881.6 1968
213 856.2 1968
214 843.5 1942.6
215 881.6 1942.6
216 983.2 1929.9
217 1022.9 1929.9
218 1062.5 1929.9
219 1102.1 1929.9
220 1141.7 1929.9
221 1181.4 1929.9
222 1221 1929.9
223 1260.6 1929.9
224 1300.2 1929.9
225 1339.9 1929.9
226 1379.5 1929.9
227 1419.1 1929.9
228 1458.7 1929.9
229 1498.4 1929.9
230 1538 1929.9
231 1577.6 1929.9
232 1617.2 1929.9
233 1656.9 1929.9
234 1696.5 1929.9
235 1736.1 1929.9
236 1775.7 1929.9
237 1815.4 1929.9
238 1855 1929.9
239 1894.6 1929.9
240 1934.2 1929.9
241 1973.8 1929.9
242 2013.5 1929.9
243 2053.1 1929.9
244 2092.7 1929.9
245 2132.3 1929.9
246 2172 1929.9
247 2211.6 1929.9
248 2251.2 1929.9
249 2290.8 1929.9
250 2330.5 1929.9
251 2370.1 1929.9
252 2409.7 1929.9
253 2449.3 1929.9
254 2489 1929.9
255 2528.6 1929.9
256 2568.2 1929.9
257 2607.8 1929.9
258 2647.5 1929.9
259 881.6 1917.2
260 830.8 1917.2
261 818.1 1891.8
262 881.6 1891.8
263 983.2 1879.1
264 1022.9 1879.1
265 1062.5 1879.1
266 1102.1 1879.1
267 1141.7 1879.1
268 1181.4 1879.1
269 1221 1879.1
270 1260.6 1879.1
271 1300.2 1879.1
272 1339.9 1879.1
273 1379.5 1879.1
274 1419.1 1879.1
275 1458.7 1879.1
276 1498.4 1879.1
277 1538 1879.1
278 1577.6 1879.1
279 1617.2 1879.1
280 1656.9 1879.1
281 1696.5 1879.1
282 1736.1 1879.1
283 1775.7 1879.1
284 1815.4 1879.1
285 1855 1879.1
286 1894.6 1879.1
287 1934.2 1879.1
288 1973.8 1879.1
289 2013.5 1879.1
290 2053.1 1879.1
291 2092.7 1879.1
292 2132.3 1879.1
293 2172 1879.1
294 2211.6 1879.1
295 2251.2 1879.1
296 2290.8 1879.1
297 2330.5 1879.1
298 2370.1 1879.1
299 2409.7 1879.1
300 2449.3 1879.1
301 2489 1879.1
302 2528.6 1879.1
303 2568.2 1879.1
304 2607.8 1879.1
305 2647.5 1879.1
306 881.6 1866.4
307 881.6 1841
308 1034 1828.3
309 1059.4 1828.3
310 881.6 1815.6
311 881.6 1777.5
312 1034 1777.5
313 1059.4 1777.5
314 983.2 1726.7
315 1022.9 1726.7
316 1062.5 1726.7
317 1102.1 1726.7
318 1141.7 1726.7
319 1181.4 1726.7
320 1221 1726.7
321 1260.6 1726.7
322 1300.2 1726.7
323 1339.9 1726.7
324 1379.5 1726.7
325 1419.1 1726.7
326 1458.7 1726.7
327 1498.4 1726.7
328 1538 1726.7
329 1577.6 1726.7
330 1617.2 1726.7
331 1656.9 1726.7
332 1696.5 1726.7
333 1736.1 1726.7
334 1775.7 1726.7
335 1815.4 1726.7
336 1855 1726.7
337 1894.6 1726.7
338 1934.2 1726.7
339 1973.8 1726.7
340 2013.5 1726.7
341 2053.1 1726.7
342 2092.7 1726.7
343 2132.3 1726.7
344 2172 1726.7
345 2211.6 1726.7
346 2251.2 1726.7
347 2290.8 1726.7
348 2330.5 1726.7
349 2370.1 1726.7
350 2409.7 1726.7
351 2449.3 1726.7
352 2489 1726.7
353 2528.6 1726.7
354 2568.2 1726.7
355 2607.8 1726.7
356 2647.5 1726.7
357 881.6 1701.3
358 983.2 1675.9
359 1022.9 1675.9
360 1062.5 1675.9
361 1102.1 1675.9
362 1141.7 1675.9
363 1181.4 1675.9
364 1221 1675.9
365 1260.6 1675.9
366 1300.2 1675.9
367 1339.9 1675.9
368 1379.5 1675.9
369 1419.1 1675.9
370 1458.7 1675.9
371 1498.4 1675.9
372 1538 1675.9
373 1577.6 1675.9
374 1617.2 1675.9
375 1656.9 1675.9
376 1696.5 1675.9
377 1736.1 1675.9
378 1775.7 1675.9
379 1815.4 1675.9
380 1855 1675.9
381 1894.6 1675.9
382 1934.2 1675.9
383 1973.8 1675.9
384 2013.5 1675.9
385 2053.1 1675.9
386 2092.7 1675.9
387 2132.3 1675.9
388 2172 1675.9
389 2211.6 1675.9
390 2251.2 1675.9
391 2290.8 1675.9
392 2330.5 1675.9
393 2370.1 1675.9
394 2409.7 1675.9
395 2449.3 1675.9
396 2489 1675.9
397 2528.6 1675.9
398 2568.2 1675.9
399 2607.8 1675.9
400 2647.5 1675.9
401 868.9 1663.2
402 1034 1625.1
403 1059.4 1625.1
404 1059.4 1574.3
405 1034 1574.3
406 983.2 1523.5
407 1022.9 1523.5
408 1062.5 1523.5
409 1102.1 1523.5
410 1141.7 1523.5
411 1181.4 1523.5
412 1221 1523.5
413 1260.6 1523.5
414 1300.2 1523.5
415 1339.9 1523.5
416 1379.5 1523.5
417 1419.1 1523.5
418 1458.7 1523.5
419 1498.4 1523.5
420 1538 1523.5
421 1577.6 1523.5
422 1617.2 1523.5
423 1656.9 1523.5
424 1696.5 1523.5
425 1736.1 1523.5
426 1775.7 1523.5
427 1815.4 1523.5
428 1855 1523.5
429 1894.6 1523.5
430 1934.2 1523.5
431 1973.8 1523.5
432 2013.5 1523.5
433 2053.1 1523.5
434 2092.7 1523.5
435 2132.3 1523.5
436 2172 1523.5
437 2211.6 1523.5
438 2251.2 1523.5
439 2290.8 1523.5
440 2330.5 1523.5
441 2370.1 1523.5
442 2409.7 1523.5
443 2449.3 1523.5
444 2489 1523.5
445 2528.6 1523.5
446 2568.2 1523.5
447 2607.8 1523.5
448 2647.5 1523.5
449 868.9 1485.4
450 983.2 1472.7
451 1022.9 1472.7
452 1062.5 1472.7
453 1102.1 1472.7
454 1141.7 1472.7
455 1181.4 1472.7
456 1221 1472.7
457 1260.6 1472.7
458 1300.2 1472.7
459 1339.9 1472.7
460 1379.5 1472.7
461 1419.1 1472.7
462 1458.7 1472.7
463 1498.4 1472.7
464 1538 1472.7
465 1577.6 1472.7
466 1617.2 1472.7
467 1656.9 1472.7
468 1696.5 1472.7
469 1736.1 1472.7
470 1775.7 1472.7
471 1815.4 1472.7
472 1855 1472.7
473 1894.6 1472.7
474 1934.2 1472.7
475 1973.8 1472.7
476 2013.5 1472.7
477 2053.1 1472.7
478 2092.7 1472.7
479 2132.3 1472.7
480 2172 1472.7
481 2211.6 1472.7
482 2251.2 1472.7
483 2290.8 1472.7
484 2330.5 1472.7
485 2370.1 1472.7
486 2409.7 1472.7
487 2449.3 1472.7
488 2489 1472.7
489 2528.6 1472.7
490 2568.2 1472.7
491 2607.8 1472.7
492 2647.5 1472.7
493 1059.4 1421.9
494 1034 1421.9
495 856.2 1396.5
496 830.8 1396.5
497 1034 1371.1
498 1059.4 1371.1
499 907 1358.4
500 830.8 1358.4
501 830.8 1333
502 907 1333
503 983.2 1320.3
504 1022.9 1320.3
505 1062.5 1320.3
506 1102.1 1320.3
507 1141.7 1320.3
508 1181.4 1320.3
509 1221 1320.3
510 1260.6 1320.3
511 1300.2 1320.3
512 1339.9 1320.3
513 1379.5 1320.3
514 1419.1 1320.3
515 1458.7 1320.3
516 1498.4 1320.3
517 1538 1320.3
518 1577.6 1320.3
519 1617.2 1320.3
520 1656.9 1320.3
521 1696.5 1320.3
522 1736.1 1320.3
523 1775.7 1320.3
524 1815.4 1320.3
525 1855 1320.3
526 1894.6 1320.3
527 1934.2 1320.3
528 1973.8 1320.3
529 2013.5 1320.3
530 2053.1 1320.3
531 2092.7 1320.3
532 2132.3 1320.3
533 2172 1320.3
534 2211.6 1320.3
535 2251.2 1320.3
536 2290.8 1320.3
537 2330.5 1320.3
538 2370.1 1320.3
539 2409.7 1320.3
540 2449.3 1320.3
541 2489 1320.3
542 2528.6 1320.3
543 2568.2 1320.3
544 2607.8 1320.3
545 2647.5 1320.3
546 907 1307.6
547 830.8 1307.6
548 830.8 1282.2
549 907 1282.2
550 983.2 1269.5
551 1022.9 1269.5
552 1062.5 1269.5
553 1102.1 1269.5
554 1141.7 1269.5
555 1181.4 1269.5
556 1221 1269.5
557 1260.6 1269.5
558 1300.2 1269.5
559 1339.9 1269.5
560 1379.5 1269.5
561 1419.1 1269.5
562 1458.7 1269.5
563 1498.4 1269.5
564 1538 1269.5
565 1577.6 1269.5
566 1617.2 1269.5
567 1656.9 1269.5
568 1696.5 1269.5
569 1736.1 1269.5
570 1775.7 1269.5
571 1815.4 1269.5
572 1855 1269.5
573 1894.6 1269.5
574 1934.2 1269.5
575 1973.8 1269.5
576 2013.5 1269.5
577 2053.1 1269.5
578 2092.7 1269.5
579 2132.3 1269.5
580 2172 1269.5
581 2211.6 1269.5
582 2251.2 1269.5
583 2290.8 1269.5
584 2330.5 1269.5
585 2370.1 1269.5
586 2409.7 1269.5
587 2449.3 1269.5
588 2489 1269.5
589 2528.6 1269.5
590 2568.2 1269.5
591 2607.8 1269.5
592 2647.5 1269.5
593 907 1256.8
594 830.8 1256.8
595 830.8 1231.4
596 907 1231.4
597 1034 1218.7
598 1059.4 1218.7
599 907 1206
600 830.8 1206
601 830.8 1180.6
602 907 1180.6
603 1034 1167.9
604 1059.4 1167.9
605 856.2 1142.5
606 830.8 1142.5
607 983.2 1117.1
608 1022.9 1117.1
609 1062.5 1117.1
610 1102.1 1117.1
611 1141.7 1117.1
612 1181.4 1117.1
613 1221 1117.1
614 1260.6 1117.1
615 1300.2 1117.1
616 1339.9 1117.1
617 1379.5 1117.1
618 1419.1 1117.1
619 1458.7 1117.1
620 1498.4 1117.1
621 1538 1117.1
622 1577.6 1117.1
623 1617.2 1117.1
624 1656.9 1117.1
625 1696.5 1117.1
626 1736.1 1117.1
627 1775.7 1117.1
628 1815.4 1117.1
629 1855 1117.1
630 1894.6 1117.1
631 1934.2 1117.1
632 1973.8 1117.1
633 2013.5 1117.1
634 2053.1 1117.1
635 2092.7 1117.1
636 2132.3 1117.1
637 2172 1117.1
638 2211.6 1117.1
639 2251.2 1117.1
640 2290.8 1117.1
641 2330.5 1117.1
642 2370.1 1117.1
643 2409.7 1117.1
644 2449.3 1117.1
645 2489 1117.1
646 2528.6 1117.1
647 2568.2 1117.1
648 2607.8 1117.1
649 2647.5 1117.1
650 907 1104.4
651 830.8 1104.4
652 830.8 1079
653 868.9 1079
654 907 1079
655 983.2 1066.3
656 1022.9 1066.3
657 1062.5 1066.3
658 1102.1 1066.3
659 1141.7 1066.3
660 1181.4 1066.3
661 1221 1066.3
662 1260.6 1066.3
663 1300.2 1066.3
664 1339.9 1066.3
665 1379.5 1066.3
666 1419.1 1066.3
667 1458.7 1066.3
668 1498.4 1066.3
669 1538 1066.3
670 1577.6 1066.3
671 1617.2 1066.3
672 1656.9 1066.3
673 1696.5 1066.3
674 1736.1 1066.3
675 1775.7 1066.3
676 1815.4 1066.3
677 1855 1066.3
678 1894.6 1066.3
679 1934.2 1066.3
680 1973.8 1066.3
681 2013.5 1066.3
682 2053.1 1066.3
683 2092.7 1066.3
684 2132.3 1066.3
685 2172 1066.3
686 2211.6 1066.3
687 2251.2 1066.3
688 2290.8 1066.3
689 2330.5 1066.3
690 2370.1 1066.3
691 2409.7 1066.3
692 2449.3 1066.3
693 2489 1066.3
694 2528.6 1066.3
695 2568.2 1066.3
696 2607.8 1066.3
697 2647.5 1066.3
698 907 1053.6
699 868.9 1053.6
700 830.8 1053.6
701 830.8 1028.2
702 868.9 1028.2
703 907 1028.2
704 1034 1015.5
705 1059.4 1015.5
706 907 1002.8
707 830.8 1002.8
708 1135.6 990.1
709 907 977.4
710 830.8 977.4
711 1034 964.7
712 1059.4 964.7
713 907 952
714 830.8 952
715 830.8 926.6
716 907 926.6
717 983.2 913.9
718 1022.9 913.9
719 1062.5 913.9
720 1102.1 913.9
721 1141.7 913.9
722 1181.4 913.9
723 1221 913.9
724 1260.6 913.9
725 1300.2 913.9
726 1339.9 913.9
727 1379.5 913.9
728 1419.1 913.9
729 1458.7 913.9
730 1498.4 913.9
731 1538 913.9
732 1577.6 913.9
733 1617.2 913.9
734 1656.9 913.9
735 1696.5 913.9
736 1736.1 913.9
737 1775.7 913.9
738 1815.4 913.9
739 1855 913.9
740 1894.6 913.9
741 1934.2 913.9
742 1973.8 913.9
743 2013.5 913.9
744 2053.1 913.9
745 2092.7 913.9
746 2132.3 913.9
747 2172 913.9
748 2211.6 913.9
749 2251.2 913.9
750 2290.8 913.9
751 2330.5 913.9
752 2370.1 913.9
753 2409.7 913.9
754 2449.3 913.9
755 2489 913.9
756 2528.6 913.9
757 2568.2 913.9
758 2607.8 913.9
759 2647.5 913.9
760 868.9 888.5
761 983.2 863.1
762 1022.9 863.1
763 1062.5 863.1
764 1102.1 863.1
765 1141.7 863.1
766 1181.4 863.1
767 1221 863.1
768 1260.6 863.1
769 1300.2 863.1
770 1339.9 863.1
771 1379.5 863.1
772 1419.1 863.1
773 1458.7 863.1
774 1498.4 863.1
775 1538 863.1
776 1577.6 863.1
777 1617.2 863.1
778 1656.9 863.1
779 1696.5 863.1
780 1736.1 863.1
781 1775.7 863.1
782 1815.4 863.1
783 1855 863.1
784 1894.6 863.1
785 1934.2 863.1
786 1973.8 863.1
787 2013.5 863.1
788 2053.1 863.1
789 2092.7 863.1
790 2132.3 863.1
791 2172 863.1
792 2211.6 863.1
793 2251.2 863.1
794 2290.8 863.1
795 2330.5 863.1
796 2370.1 863.1
797 2409.7 863.1
798 2449.3 863.1
799 2489 863.1
800 2528.6 863.1
801 2568.2 863.1
802 2607.8 863.1
803 2647.5 863.1
804 1681.5 837.7
805 1249.9 837.7
806 868.9 837.7
807 957.8 825
808 983.2 825
809 1034 825
810 1110.2 825
811 1148.3 825
812 1224.5 825
813 1300.7 825
814 1376.9 825
815 1415 825
816 1491.2 825
817 1529.1 825
818 1605.3 825
819 1643.4 825
820 1719.6 825
821 1757.7 825
822 1833.9 825
823 691.1 2380.7
824 741.9 2380.7
825 792.7 2380.7
826 792.7 2431.5
827 691.1 2431.5
828 830.8 2437.9
829 907 2437.9
830 907 2463.3
831 830.8 2463.3
832 792.7 2482.3
833 741.9 2482.3
834 691.1 2482.3
835 830.8 2488.7
836 907 2488.7
837 983.2 2488.7
838 1022.9 2488.7
839 1062.5 2488.7
840 1102.1 2488.7
841 1141.7 2488.7
842 1181.4 2488.7
843 1221 2488.7
844 1260.6 2488.7
845 1300.2 2488.7
846 1339.9 2488.7
847 1379.5 2488.7
848 1419.1 2488.7
849 1458.7 2488.7
850 1498.4 2488.7
851 1538 2488.7
852 1577.6 2488.7
853 1617.2 2488.7
854 1656.9 2488.7
855 1696.5 2488.7
856 1736.1 2488.7
857 1775.7 2488.7
858 1815.4 2488.7
859 1855 2488.7
860 1894.6 2488.7
861 1934.2 2488.7
862 1973.8 2488.7
863 2013.5 2488.7
864 2053.1 2488.7
865 2092.7 2488.7
866 2132.3 2488.7
867 2172 2488.7
868 2211.6 2488.7
869 2251.2 2488.7
870 2290.8 2488.7
871 2330.5 2488.7
872 2370.1 2488.7
873 2409.7 2488.7
874 2449.3 2488.7
875 2489 2488.7
876 2528.6 2488.7
877 2568.2 2488.7
878 2607.8 2488.7
879 2647.5 2488.7
880 907 2514.1
881 830.8 2514.1
882 830.8 2539.5
883 907 2539.5
884 983.2 2539.5
885 1022.9 2539.5
886 1062.5 2539.5
887 1102.1 2539.5
888 1141.7 2539.5
889 1181.4 2539.5
890 1221 2539.5
891 1260.6 2539.5
892 1300.2 2539.5
893 1339.9 2539.5
894 1379.5 2539.5
895 1419.1 2539.5
896 1458.7 2539.5
897 1498.4 2539.5
898 1538 2539.5
899 1577.6 2539.5
900 1617.2 2539.5
901 1656.9 2539.5
902 1696.5 2539.5
903 1736.1 2539.5
904 1775.7 2539.5
905 1815.4 2539.5
906 1855 2539.5
907 1894.6 2539.5
908 1934.2 2539.5
909 1973.8 2539.5
910 2013.5 2539.5
911 2053.1 2539.5
912 2092.7 2539.5
913 2132.3 2539.5
914 2172 2539.5
915 2211.6 2539.5
916 2251.2 2539.5
917 2290.8 2539.5
918 2330.5 2539.5
919 2370.1 2539.5
920 2409.7 2539.5
921 2449.3 2539.5
922 2489 2539.5
923 2528.6 2539.5
924 2568.2 2539.5
925 2607.8 2539.5
926 2647.5 2539.5
927 907 2564.9
928 830.8 2564.9
929 830.8 2590.3
930 907 2590.3
931 1034 2590.3
932 1059.4 2590.3
933 856.2 2628.4
934 830.8 2628.4
935 830.8 2666.5
936 907 2666.5
937 830.8 2691.9
938 907 2691.9
939 983.2 2691.9
940 1022.9 2691.9
941 1062.5 2691.9
942 1102.1 2691.9
943 1141.7 2691.9
944 1181.4 2691.9
945 1221 2691.9
946 1260.6 2691.9
947 1300.2 2691.9
948 1339.9 2691.9
949 1379.5 2691.9
950 1419.1 2691.9
951 1458.7 2691.9
952 1498.4 2691.9
953 1538 2691.9
954 1577.6 2691.9
955 1617.2 2691.9
956 1656.9 2691.9
957 1696.5 2691.9
958 1736.1 2691.9
959 1775.7 2691.9
960 1815.4 2691.9
961 1855 2691.9
962 1894.6 2691.9
963 1934.2 2691.9
964 1973.8 2691.9
965 2013.5 2691.9
966 2053.1 2691.9
967 2092.7 2691.9
968 2132.3 2691.9
969 2172 2691.9
970 2211.6 2691.9
971 2251.2 2691.9
972 2290.8 2691.9
973 2330.5 2691.9
974 2370.1 2691.9
975 2409.7 2691.9
976 2449.3 2691.9
977 2489 2691.9
978 2528.6 2691.9
979 2568.2 2691.9
980 2607.8 2691.9
981 2647.5 2691.9
982 907 2717.3
983 830.8 2717.3
984 830.8 2742.7
985 907 2742.7
986 983.2 2742.7
987 1022.9 2742.7
988 1062.5 2742.7
989 1102.1 2742.7
990 1141.7 2742.7
991 1181.4 2742.7
992 1221 2742.7
993 1260.6 2742.7
994 1300.2 2742.7
995 1339.9 2742.7
996 1379.5 2742.7
997 1419.1 2742.7
998 1458.7 2742.7
999 1498.4 2742.7
1000 1538 2742.7
1001 1577.6 2742.7
1002 1617.2 2742.7
1003 1656.9 2742.7
1004 1696.5 2742.7
1005 1736.1 2742.7
1006 1775.7 2742.7
1007 1815.4 2742.7
1008 1855 2742.7
1009 1894.6 2742.7
1010 1934.2 2742.7
1011 1973.8 2742.7
1012 2013.5 2742.7
1013 2053.1 2742.7
1014 2092.7 2742.7
1015 2132.3 2742.7
1016 2172 2742.7
1017 2211.6 2742.7
1018 2251.2 2742.7
1019 2290.8 2742.7
1020 2330.5 2742.7
1021 2370.1 2742.7
1022 2409.7 2742.7
1023 2449.3 2742.7
1024 2489 2742.7
1025 2528.6 2742.7
1026 2568.2 2742.7
1027 2607.8 2742.7
1028 2647.5 2742.7
1029 907 2768.1
1030 830.8 2768.1
1031 830.8 2793.5
1032 907 2793.5
1033 1034 2793.5
1034 1059.4 2793.5
1035 907 2818.9
1036 830.8 2818.9
1037 830.8 2844.3
1038 907 2844.3
1039 907 2882.4
1040 856.2 2882.4
1041 830.8 2882.4
1042 983.2 2895.1
1043 1022.9 2895.1
1044 1062.5 2895.1
1045 1102.1 2895.1
1046 1141.7 2895.1
1047 1181.4 2895.1
1048 1221 2895.1
1049 1260.6 2895.1
1050 1300.2 2895.1
1051 1339.9 2895.1
1052 1379.5 2895.1
1053 1419.1 2895.1
1054 1458.7 2895.1
1055 1498.4 2895.1
1056 1538 2895.1
1057 1577.6 2895.1
1058 1617.2 2895.1
1059 1656.9 2895.1
1060 1696.5 2895.1
1061 1736.1 2895.1
1062 1775.7 2895.1
1063 1815.4 2895.1
1064 1855 2895.1
1065 1894.6 2895.1
1066 1934.2 2895.1
1067 1973.8 2895.1
1068 2013.5 2895.1
1069 2053.1 2895.1
1070 2092.7 2895.1
1071 2132.3 2895.1
1072 2172 2895.1
1073 2211.6 2895.1
1074 2251.2 2895.1
1075 2290.8 2895.1
1076 2330.5 2895.1
1077 2370.1 2895.1
1078 2409.7 2895.1
1079 2449.3 2895.1
1080 2489 2895.1
1081 2528.6 2895.1
1082 2568.2 2895.1
1083 2607.8 2895.1
1084 2647.5 2895.1
1085 843.5 2920.5
1086 843.5 2945.9
1087 983.2 2945.9
1088 1022.9 2945.9
1089 1062.5 2945.9
1090 1102.1 2945.9
1091 1141.7 2945.9
1092 1181.4 2945.9
1093 1221 2945.9
1094 1260.6 2945.9
1095 1300.2 2945.9
1096 1339.9 2945.9
1097 1379.5 2945.9
1098 1419.1 2945.9
1099 1458.7 2945.9
1100 1498.4 2945.9
1101 1538 2945.9
1102 1577.6 2945.9
1103 1617.2 2945.9
1104 1656.9 2945.9
1105 1696.5 2945.9
1106 1736.1 2945.9
1107 1775.7 2945.9
1108 1815.4 2945.9
1109 1855 2945.9
1110 1894.6 2945.9
1111 1934.2 2945.9
1112 1973.8 2945.9
1113 2013.5 2945.9
1114 2053.1 2945.9
1115 2092.7 2945.9
1116 2132.3 2945.9
1117 2172 2945.9
1118 2211.6 2945.9
1119 2251.2 2945.9
1120 2290.8 2945.9
1121 2330.5 2945.9
1122 2370.1 2945.9
1123 2409.7 2945.9
1124 2449.3 2945.9
1125 2489 2945.9
1126 2528.6 2945.9
1127 2568.2 2945.9
1128 2607.8 2945.9
1129 2647.5 2945.9
1130 907 2958.6
1131 843.5 2971.3
1132 907 2984
1133 932.4 2984
1134 843.5 2996.7
1135 1034 2996.7
1136 1059.4 2996.7
1137 932.4 3022.1
1138 907 3022.1
1139 843.5 3022.1
1140 843.5 3047.5
1141 843.5 3072.9
1142 894.3 3072.9
1143 919.7 3072.9
1144 843.5 3098.3
1145 983.2 3098.3
1146 1022.9 3098.3
1147 1062.5 3098.3
1148 1102.1 3098.3
1149 1141.7 3098.3
1150 1181.4 3098.3
1151 1221 3098.3
1152 1260.6 3098.3
1153 1300.2 3098.3
1154 1339.9 3098.3
1155 1379.5 3098.3
1156 1419.1 3098.3
1157 1458.7 3098.3
1158 1498.4 3098.3
1159 1538 3098.3
1160 1577.6 3098.3
1161 1617.2 3098.3
1162 1656.9 3098.3
1163 1696.5 3098.3
1164 1736.1 3098.3
1165 1775.7 3098.3
1166 1815.4 3098.3
1167 1855 3098.3
1168 1894.6 3098.3
1169 1934.2 3098.3
1170 1973.8 3098.3
1171 2013.5 3098.3
1172 2053.1 3098.3
1173 2092.7 3098.3
1174 2132.3 3098.3
1175 2172 3098.3
1176 2211.6 3098.3
1177 2251.2 3098.3
1178 2290.8 3098.3
1179 2330.5 3098.3
1180 2370.1 3098.3
1181 2409.7 3098.3
1182 2449.3 3098.3
1183 2489 3098.3
1184 2528.6 3098.3
1185 2568.2 3098.3
1186 2607.8 3098.3
1187 2647.5 3098.3
1188 792.7 3142.7
1189 741.9 3142.7
1190 691.1 3142.7
1191 894.3 3149.1
1192 919.7 3149.1
1193 983.2 3149.1
1194 1022.9 3149.1
1195 1062.5 3149.1
1196 1102.1 3149.1
1197 1141.7 3149.1
1198 1181.4 3149.1
1199 1221 3149.1
1200 1260.6 3149.1
1201 1300.2 3149.1
1202 1339.9 3149.1
1203 1379.5 3149.1
1204 1419.1 3149.1
1205 1458.7 3149.1
1206 1498.4 3149.1
1207 1538 3149.1
1208 1577.6 3149.1
1209 1617.2 3149.1
1210 1656.9 3149.1
1211 1696.5 3149.1
1212 1736.1 3149.1
1213 1775.7 3149.1
1214 1815.4 3149.1
1215 1855 3149.1
1216 1894.6 3149.1
1217 1934.2 3149.1
1218 1973.8 3149.1
1219 2013.5 3149.1
1220 2053.1 3149.1
1221 2092.7 3149.1
1222 2132.3 3149.1
1223 2172 3149.1
1224 2211.6 3149.1
1225 2251.2 3149.1
1226 2290.8 3149.1
1227 2330.5 3149.1
1228 2370.1 3149.1
1229 2409.7 3149.1
1230 2449.3 3149.1
1231 2489 3149.1
1232 2528.6 3149.1
1233 2568.2 3149.1
1234 2607.8 3149.1
1235 2647.5 3149.1
1236 1440.4 3187.2
1237 1402.3 3187.2
1238 1351.5 3187.2
1239 1313.4 3187.2
1240 919.7 3187.2
1241 894.3 3187.2
1242 792.7 3193.5
1243 691.1 3193.5
1244 1503.9 3199.9
1245 1579.9 3199.9
1246 1148.3 3225.3
1247 1122.9 3225.3
1248 1097.5 3225.3
1249 1072.1 3225.3
1250 1046.7 3225.3
1251 1021.3 3225.3
1252 995.9 3225.3
1253 970.5 3225.3
1254 792.7 3244.3
1255 741.9 3244.3
1256 691.1 3244.3
1257 1072.1 3250.7
1258 1097.5 3250.7
1259 1122.9 3250.7
1260 1148.3 3250.7
1261 1173.7 3250.7
1262 1199.1 3250.7
1263 1224.5 3250.7
1264 1249.9 3250.7
1265 1275.3 3250.7
1266 1503.9 3250.7
1267 1529.1 3250.7
1268 1554.5 3250.7
1269 1579.9 3250.7
1270 1605.3 3250.7
1271 1630.7 3250.7
1272 1656.1 3250.7
1273 1681.5 3250.7
1274 1719.6 3250.7
1275 1745 3250.7
1276 1770.4 3250.7
1277 1795.8 3250.7
1278 1821.2 3250.7
1279 1846.6 3250.7
1280 1872 3250.7
1281 1897.4 3250.7
1282 1922.8 3250.7
1283 1960.9 3250.7
1284 1986.3 3250.7
1285 2011.7 3250.7
1286 2037.1 3250.7
1287 2062.5 3250.7
1288 2087.9 3250.7
1289 2113.3 3250.7
1290 2138.7 3250.7
1291 2164.1 3250.7
1292 2227.6 3250.7
1293 2253 3250.7
1294 2278.4 3250.7
1295 2303.8 3250.7
1296 2329.2 3250.7
1297 2354.6 3250.7
1298 2380 3250.7
1299 2405.4 3250.7
1300 2430.8 3250.7
1301 2468.9 3250.7
1302 2494.3 3250.7
1303 2519.7 3250.7
1304 2545.1 3250.7
1305 2570.5 3250.7
1306 2595.9 3250.7
1307 2621.3 3250.7
1308 2646.7 3250.7
1309 2672.1 3250.7
1310 1700.5 3257
1311 945.1 3263.4
1312 1313.4 3263.4
1313 1351.5 3263.4
1314 1402.3 3263.4
1315 1440.4 3263.4
1316 2697.5 3263.4
1317 2430.8 837.7
1318 2976.9 863.1
1319 3002.3 863.1
1320 3027.7 863.1
1321 3053.1 863.1
1322 3078.5 863.1
1323 3103.9 863.1
1324 3129.3 863.1
1325 3154.7 863.1
1326 3180.1 863.1
1327 3205.5 863.1
1328 3230.9 863.1
1329 3256.3 863.1
1330 3281.7 863.1
1331 3307.1 863.1
1332 3332.5 863.1
1333 3357.9 863.1
1334 3383.3 863.1
1335 3408.7 863.1
1336 3434.1 863.1
1337 3459.5 863.1
1338 3484.9 863.1
1339 3510.3 863.1
1340 3535.7 863.1
1341 3561.1 863.1
1342 3586.5 863.1
1343 3611.9 863.1
1344 3637.3 863.1
1345 3662.7 863.1
1346 3688.1 863.1
1347 3713.5 863.1
1348 3713.5 913.9
1349 3688.1 913.9
1350 3662.7 913.9
1351 3637.3 913.9
1352 3611.9 913.9
1353 3586.5 913.9
1354 3561.1 913.9
1355 3535.7 913.9
1356 3510.3 913.9
1357 3484.9 913.9
1358 3459.5 913.9
1359 3434.1 913.9
1360 3408.7 913.9
1361 3383.3 913.9
1362 3357.9 913.9
1363 3332.5 913.9
1364 3307.1 913.9
1365 3281.7 913.9
1366 3256.3 913.9
1367 3230.9 913.9
1368 3205.5 913.9
1369 3180.1 913.9
1370 3154.7 913.9
1371 3129.3 913.9
1372 3103.9 913.9
1373 3078.5 913.9
1374 3053.1 913.9
1375 3027.7 913.9
1376 3002.3 913.9
1377 2976.9 913.9
1378 2976.9 1066.3
1379 3002.3 1066.3
1380 3027.7 1066.3
1381 3053.1 1066.3
1382 3078.5 1066.3
1383 3103.9 1066.3
1384 3129.3 1066.3
1385 3154.7 1066.3
1386 3180.1 1066.3
1387 3205.5 1066.3
1388 3230.9 1066.3
1389 3256.3 1066.3
1390 3281.7 1066.3
1391 3307.1 1066.3
1392 3332.5 1066.3
1393 3357.9 1066.3
1394 3383.3 1066.3
1395 3408.7 1066.3
1396 3434.1 1066.3
1397 3459.5 1066.3
1398 3484.9 1066.3
1399 3510.3 1066.3
1400 3535.7 1066.3
1401 3561.1 1066.3
1402 3586.5 1066.3
1403 3611.9 1066.3
1404 3637.3 1066.3
1405 3662.7 1066.3
1406 3688.1 1066.3
1407 3713.5 1066.3
1408 3713.5 1117.1
1409 3688.1 1117.1
1410 3662.7 1117.1
1411 3637.3 1117.1
1412 3611.9 1117.1
1413 3586.5 1117.1
1414 3561.1 1117.1
1415 3535.7 1117.1
1416 3510.3 1117.1
1417 3484.9 1117.1
1418 3459.5 1117.1
1419 3434.1 1117.1
1420 3408.7 1117.1
1421 3383.3 1117.1
1422 3357.9 1117.1
1423 3332.5 1117.1
1424 3307.1 1117.1
1425 3281.7 1117.1
1426 3256.3 1117.1
1427 3230.9 1117.1
1428 3205.5 1117.1
1429 3180.1 1117.1
1430 3154.7 1117.1
1431 3129.3 1117.1
1432 3103.9 1117.1
1433 3078.5 1117.1
1434 3053.1 1117.1
1435 3027.7 1117.1
1436 3002.3 1117.1
1437 2976.9 1117.1
1438 2976.9 1269.5
1439 3002.3 1269.5
1440 3027.7 1269.5
1441 3053.1 1269.5
1442 3078.5 1269.5
1443 3103.9 1269.5
1444 3129.3 1269.5
1445 3154.7 1269.5
1446 3180.1 1269.5
1447 3205.5 1269.5
1448 3230.9 1269.5
1449 3256.3 1269.5
1450 3281.7 1269.5
1451 3307.1 1269.5
1452 3332.5 1269.5
1453 3357.9 1269.5
1454 3383.3 1269.5
1455 3408.7 1269.5
1456 3434.1 1269.5
1457 3459.5 1269.5
1458 3484.9 1269.5
1459 3510.3 1269.5
1460 3535.7 1269.5
1461 3561.1 1269.5
1462 3586.5 1269.5
1463 3611.9 1269.5
1464 3637.3 1269.5
1465 3662.7 1269.5
1466 3688.1 1269.5
1467 3713.5 1269.5
1468 3713.5 1320.3
1469 3688.1 1320.3
1470 3662.7 1320.3
1471 3637.3 1320.3
1472 3611.9 1320.3
1473 3586.5 1320.3
1474 3561.1 1320.3
1475 3535.7 1320.3
1476 3510.3 1320.3
1477 3484.9 1320.3
1478 3459.5 1320.3
1479 3434.1 1320.3
1480 3408.7 1320.3
1481 3383.3 1320.3
1482 3357.9 1320.3
1483 3332.5 1320.3
1484 3307.1 1320.3
1485 3281.7 1320.3
1486 3256.3 1320.3
1487 3230.9 1320.3
1488 3205.5 1320.3
1489 3180.1 1320.3
1490 3154.7 1320.3
1491 3129.3 1320.3
1492 3103.9 1320.3
1493 3078.5 1320.3
1494 3053.1 1320.3
1495 3027.7 1320.3
1496 3002.3 1320.3
1497 2976.9 1320.3
1498 2976.9 1472.7
1499 3002.3 1472.7
1500 3027.7 1472.7
1501 3053.1 1472.7
1502 3078.5 1472.7
1503 3103.9 1472.7
1504 3129.3 1472.7
1505 3154.7 1472.7
1506 3180.1 1472.7
1507 3205.5 1472.7
1508 3230.9 1472.7
1509 3256.3 1472.7
1510 3281.7 1472.7
1511 3307.1 1472.7
1512 3332.5 1472.7
1513 3357.9 1472.7
1514 3383.3 1472.7
1515 3408.7 1472.7
1516 3434.1 1472.7
1517 3459.5 1472.7
1518 3484.9 1472.7
1519 3510.3 1472.7
1520 3535.7 1472.7
1521 3561.1 1472.7
1522 3586.5 1472.7
1523 3611.9 1472.7
1524 3637.3 1472.7
1525 3662.7 1472.7
1526 3688.1 1472.7
1527 3713.5 1472.7
1528 3713.5 1523.5
1529 3688.1 1523.5
1530 3662.7 1523.5
1531 3637.3 1523.5
1532 3611.9 1523.5
1533 3586.5 1523.5
1534 3561.1 1523.5
1535 3535.7 1523.5
1536 3510.3 1523.5
1537 3484.9 1523.5
1538 3459.5 1523.5
1539 3434.1 1523.5
1540 3408.7 1523.5
1541 3383.3 1523.5
1542 3357.9 1523.5
1543 3332.5 1523.5
1544 3307.1 1523.5
1545 3281.7 1523.5
1546 3256.3 1523.5
1547 3230.9 1523.5
1548 3205.5 1523.5
1549 3180.1 1523.5
1550 3154.7 1523.5
1551 3129.3 1523.5
1552 3103.9 1523.5
1553 3078.5 1523.5
1554 3053.1 1523.5
1555 3027.7 1523.5
1556 3002.3 1523.5
1557 2976.9 1523.5
1558 2976.9 1675.9
1559 3002.3 1675.9
1560 3027.7 1675.9
1561 3053.1 1675.9
1562 3078.5 1675.9
1563 3103.9 1675.9
1564 3129.3 1675.9
1565 3154.7 1675.9
1566 3180.1 1675.9
1567 3205.5 1675.9
1568 3230.9 1675.9
1569 3256.3 1675.9
1570 3281.7 1675.9
1571 3307.1 1675.9
1572 3332.5 1675.9
1573 3357.9 1675.9
1574 3383.3 1675.9
1575 3408.7 1675.9
1576 3434.1 1675.9
1577 3459.5 1675.9
1578 3484.9 1675.9
1579 3510.3 1675.9
1580 3535.7 1675.9
1581 3561.1 1675.9
1582 3586.5 1675.9
1583 3611.9 1675.9
1584 3637.3 1675.9
1585 3662.7 1675.9
1586 3688.1 1675.9
1587 3713.5 1675.9
1588 3713.5 1726.7
1589 3688.1 1726.7
1590 3662.7 1726.7
1591 3637.3 1726.7
1592 3611.9 1726.7
1593 3586.5 1726.7
1594 3561.1 1726.7
1595 3535.7 1726.7
1596 3510.3 1726.7
1597 3484.9 1726.7
1598 3459.5 1726.7
1599 3434.1 1726.7
1600 3408.7 1726.7
1601 3383.3 1726.7
1602 3357.9 1726.7
1603 3332.5 1726.7
1604 3307.1 1726.7
1605 3281.7 1726.7
1606 3256.3 1726.7
1607 3230.9 1726.7
1608 3205.5 1726.7
1609 3180.1 1726.7
1610 3154.7 1726.7
1611 3129.3 1726.7
1612 3103.9 1726.7
1613 3078.5 1726.7
1614 3053.1 1726.7
1615 3027.7 1726.7
1616 3002.3 1726.7
1617 2976.9 1726.7
1618 2976.9 1879.1
1619 3002.3 1879.1
1620 3027.7 1879.1
1621 3053.1 1879.1
1622 3078.5 1879.1
1623 3103.9 1879.1
1624 3129.3 1879.1
1625 3154.7 1879.1
1626 3180.1 1879.1
1627 3205.5 1879.1
1628 3230.9 1879.1
1629 3256.3 1879.1
1630 3281.7 1879.1
1631 3307.1 1879.1
1632 3332.5 1879.1
1633 3357.9 1879.1
1634 3383.3 1879.1
1635 3408.7 1879.1
1636 3434.1 1879.1
1637 3459.5 1879.1
1638 3484.9 1879.1
1639 3510.3 1879.1
1640 3535.7 1879.1
1641 3561.1 1879.1
1642 3586.5 1879.1
1643 3611.9 1879.1
1644 3637.3 1879.1
1645 3662.7 1879.1
1646 3688.1 1879.1
1647 3713.5 1879.1
1648 3713.5 1929.9
1649 3688.1 1929.9
1650 3662.7 1929.9
1651 3637.3 1929.9
1652 3611.9 1929.9
1653 3586.5 1929.9
1654 3561.1 1929.9
1655 3535.7 1929.9
1656 3510.3 1929.9
1657 3484.9 1929.9
1658 3459.5 1929.9
1659 3434.1 1929.9
1660 3408.7 1929.9
1661 3383.3 1929.9
1662 3357.9 1929.9
1663 3332.5 1929.9
1664 3307.1 1929.9
1665 3281.7 1929.9
1666 3256.3 1929.9
1667 3230.9 1929.9
1668 3205.5 1929.9
1669 3180.1 1929.9
1670 3154.7 1929.9
1671 3129.3 1929.9
1672 3103.9 1929.9
1673 3078.5 1929.9
1674 3053.1 1929.9
1675 3027.7 1929.9
1676 3002.3 1929.9
1677 2976.9 1929.9
1678 2976.9 2082.3
1679 3002.3 2082.3
1680 3027.7 2082.3
1681 3053.1 2082.3
1682 3078.5 2082.3
1683 3103.9 2082.3
1684 3129.3 2082.3
1685 3154.7 2082.3
1686 3180.1 2082.3
1687 3205.5 2082.3
1688 3230.9 2082.3
1689 3256.3 2082.3
1690 3281.7 2082.3
1691 3307.1 2082.3
1692 3332.5 2082.3
1693 3357.9 2082.3
1694 3383.3 2082.3
1695 3408.7 2082.3
1696 3434.1 2082.3
1697 3459.5 2082.3
1698 3484.9 2082.3
1699 3510.3 2082.3
1700 3535.7 2082.3
1701 3561.1 2082.3
1702 3586.5 2082.3
1703 3611.9 2082.3
1704 3637.3 2082.3
1705 3662.7 2082.3
1706 3688.1 2082.3
1707 3713.5 2082.3
1708 3713.5 2133.1
1709 3688.1 2133.1
1710 3662.7 2133.1
1711 3637.3 2133.1
1712 3611.9 2133.1
1713 3586.5 2133.1
1714 3561.1 2133.1
1715 3535.7 2133.1
1716 3510.3 2133.1
1717 3484.9 2133.1
1718 3459.5 2133.1
1719 3434.1 2133.1
1720 3408.7 2133.1
1721 3383.3 2133.1
1722 3357.9 2133.1
1723 3332.5 2133.1
1724 3307.1 2133.1
1725 3281.7 2133.1
1726 3256.3 2133.1
1727 3230.9 2133.1
1728 3205.5 2133.1
1729 3180.1 2133.1
1730 3154.7 2133.1
1731 3129.3 2133.1
1732 3103.9 2133.1
1733 3078.5 2133.1
1734 3053.1 2133.1
1735 3027.7 2133.1
1736 3002.3 2133.1
1737 2976.9 2133.1
1738 2976.9 2285.5
1739 3002.3 2285.5
1740 3027.7 2285.5
1741 3053.1 2285.5
1742 3078.5 2285.5
1743 3103.9 2285.5
1744 3129.3 2285.5
1745 3154.7 2285.5
1746 3180.1 2285.5
1747 3205.5 2285.5
1748 3230.9 2285.5
1749 3256.3 2285.5
1750 3281.7 2285.5
1751 3307.1 2285.5
1752 3332.5 2285.5
1753 3357.9 2285.5
1754 3383.3 2285.5
1755 3408.7 2285.5
1756 3434.1 2285.5
1757 3459.5 2285.5
1758 3484.9 2285.5
1759 3510.3 2285.5
1760 3535.7 2285.5
1761 3561.1 2285.5
1762 3586.5 2285.5
1763 3611.9 2285.5
1764 3637.3 2285.5
1765 3662.7 2285.5
1766 3688.1 2285.5
1767 3713.5 2285.5
1768 3713.5 2336.3
1769 3688.1 2336.3
1770 3662.7 2336.3
1771 3637.3 2336.3
1772 3611.9 2336.3
1773 3586.5 2336.3
1774 3561.1 2336.3
1775 3535.7 2336.3
1776 3510.3 2336.3
1777 3484.9 2336.3
1778 3459.5 2336.3
1779 3434.1 2336.3
1780 3408.7 2336.3
1781 3383.3 2336.3
1782 3357.9 2336.3
1783 3332.5 2336.3
1784 3307.1 2336.3
1785 3281.7 2336.3
1786 3256.3 2336.3
1787 3230.9 2336.3
1788 3205.5 2336.3
1789 3180.1 2336.3
1790 3154.7 2336.3
1791 3129.3 2336.3
1792 3103.9 2336.3
1793 3078.5 2336.3
1794 3053.1 2336.3
1795 3027.7 2336.3
1796 3002.3 2336.3
1797 2976.9 2336.3
1798 2976.9 2488.7
1799 3002.3 2488.7
1800 3027.7 2488.7
1801 3053.1 2488.7
1802 3078.5 2488.7
1803 3103.9 2488.7
1804 3129.3 2488.7
1805 3154.7 2488.7
1806 3180.1 2488.7
1807 3205.5 2488.7
1808 3230.9 2488.7
1809 3256.3 2488.7
1810 3281.7 2488.7
1811 3307.1 2488.7
1812 3332.5 2488.7
1813 3357.9 2488.7
1814 3383.3 2488.7
1815 3408.7 2488.7
1816 3434.1 2488.7
1817 3459.5 2488.7
1818 3484.9 2488.7
1819 3510.3 2488.7
1820 3535.7 2488.7
1821 3561.1 2488.7
1822 3586.5 2488.7
1823 3611.9 2488.7
1824 3637.3 2488.7
1825 3662.7 2488.7
1826 3688.1 2488.7
1827 3713.5 2488.7
1828 3713.5 2539.5
1829 3688.1 2539.5
1830 3662.7 2539.5
1831 3637.3 2539.5
1832 3611.9 2539.5
1833 3586.5 2539.5
1834 3561.1 2539.5
1835 3535.7 2539.5
1836 3510.3 2539.5
1837 3484.9 2539.5
1838 3459.5 2539.5
1839 3434.1 2539.5
1840 3408.7 2539.5
1841 3383.3 2539.5
1842 3357.9 2539.5
1843 3332.5 2539.5
1844 3307.1 2539.5
1845 3281.7 2539.5
1846 3256.3 2539.5
1847 3230.9 2539.5
1848 3205.5 2539.5
1849 3180.1 2539.5
1850 3154.7 2539.5
1851 3129.3 2539.5
1852 3103.9 2539.5
1853 3078.5 2539.5
1854 3053.1 2539.5
1855 3027.7 2539.5
1856 3002.3 2539.5
1857 2976.9 2539.5
1858 2976.9 2691.9
1859 3002.3 2691.9
1860 3027.7 2691.9
1861 3053.1 2691.9
1862 3078.5 2691.9
1863 3103.9 2691.9
1864 3129.3 2691.9
1865 3154.7 2691.9
1866 3180.1 2691.9
1867 3205.5 2691.9
1868 3230.9 2691.9
1869 3256.3 2691.9
1870 3281.7 2691.9
1871 3307.1 2691.9
1872 3332.5 2691.9
1873 3357.9 2691.9
1874 3383.3 2691.9
1875 3408.7 2691.9
1876 3434.1 2691.9
1877 3459.5 2691.9
1878 3484.9 2691.9
1879 3510.3 2691.9
1880 3535.7 2691.9
1881 3561.1 2691.9
1882 3586.5 2691.9
1883 3611.9 2691.9
1884 3637.3 2691.9
1885 3662.7 2691.9
1886 3688.1 2691.9
1887 3713.5 2691.9
1888 3713.5 2742.7
1889 3688.1 2742.7
1890 3662.7 2742.7
1891 3637.3 2742.7
1892 3611.9 2742.7
1893 3586.5 2742.7
1894 3561.1 2742.7
1895 3535.7 2742.7
1896 3510.3 2742.7
1897 3484.9 2742.7
1898 3459.5 2742.7
1899 3434.1 2742.7
1900 3408.7 2742.7
1901 3383.3 2742.7
1902 3357.9 2742.7
1903 3332.5 2742.7
1904 3307.1 2742.7
1905 3281.7 2742.7
1906 3256.3 2742.7
1907 3230.9 2742.7
1908 3205.5 2742.7
1909 3180.1 2742.7
1910 3154.7 2742.7
1911 3129.3 2742.7
1912 3103.9 2742.7
1913 3078.5 2742.7
1914 3053.1 2742.7
1915 3027.7 2742.7
1916 3002.3 2742.7
1917 2976.9 2742.7
1918 2976.9 2895.1
1919 3002.3 2895.1
1920 3027.7 2895.1
1921 3053.1 2895.1
1922 3078.5 2895.1
1923 3103.9 2895.1
1924 3129.3 2895.1
1925 3154.7 2895.1
1926 3180.1 2895.1
1927 3205.5 2895.1
1928 3230.9 2895.1
1929 3256.3 2895.1
1930 3281.7 2895.1
1931 3307.1 2895.1
1932 3332.5 2895.1
1933 3357.9 2895.1
1934 3383.3 2895.1
1935 3408.7 2895.1
1936 3434.1 2895.1
1937 3459.5 2895.1
1938 3484.9 2895.1
1939 3510.3 2895.1
1940 3535.7 2895.1
1941 3561.1 2895.1
1942 3586.5 2895.1
1943 3611.9 2895.1
1944 3637.3 2895.1
1945 3662.7 2895.1
1946 3688.1 2895.1
1947 3713.5 2895.1
1948 3713.5 2945.9
1949 3688.1 2945.9
1950 3662.7 2945.9
1951 3637.3 2945.9
1952 3611.9 2945.9
1953 3586.5 2945.9
1954 3561.1 2945.9
1955 3535.7 2945.9
1956 3510.3 2945.9
1957 3484.9 2945.9
1958 3459.5 2945.9
1959 3434.1 2945.9
1960 3408.7 2945.9
1961 3383.3 2945.9
1962 3357.9 2945.9
1963 3332.5 2945.9
1964 3307.1 2945.9
1965 3281.7 2945.9
1966 3256.3 2945.9
1967 3230.9 2945.9
1968 3205.5 2945.9
1969 3180.1 2945.9
1970 3154.7 2945.9
1971 3129.3 2945.9
1972 3103.9 2945.9
1973 3078.5 2945.9
1974 3053.1 2945.9
1975 3027.7 2945.9
1976 3002.3 2945.9
1977 2976.9 2945.9
1978 2976.9 3098.3
1979 3002.3 3098.3
1980 3027.7 3098.3
1981 3053.1 3098.3
1982 3078.5 3098.3
1983 3103.9 3098.3
1984 3129.3 3098.3
1985 3154.7 3098.3
1986 3180.1 3098.3
1987 3205.5 3098.3
1988 3230.9 3098.3
1989 3256.3 3098.3
1990 3281.7 3098.3
1991 3307.1 3098.3
1992 3332.5 3098.3
1993 3357.9 3098.3
1994 3383.3 3098.3
1995 3408.7 3098.3
1996 3434.1 3098.3
1997 3459.5 3098.3
1998 3484.9 3098.3
1999 3510.3 3098.3
2000 3535.7 3098.3
2001 3561.1 3098.3
2002 3586.5 3098.3
2003 3611.9 3098.3
2004 3637.3 3098.3
2005 3662.7 3098.3
2006 3688.1 3098.3
2007 3713.5 3098.3
2008 3713.5 3149.1
2009 3688.1 3149.1
2010 3662.7 3149.1
2011 3637.3 3149.1
2012 3611.9 3149.1
2013 3586.5 3149.1
2014 3561.1 3149.1
2015 3535.7 3149.1
2016 3510.3 3149.1
2017 3484.9 3149.1
2018 3459.5 3149.1
2019 3434.1 3149.1
2020 3408.7 3149.1
2021 3383.3 3149.1
2022 3357.9 3149.1
2023 3332.5 3149.1
2024 3307.1 3149.1
2025 3281.7 3149.1
2026 3256.3 3149.1
2027 3230.9 3149.1
2028 3205.5 3149.1
2029 3180.1 3149.1
2030 3154.7 3149.1
2031 3129.3 3149.1
2032 3103.9 3149.1
2033 3078.5 3149.1
2034 3053.1 3149.1
2035 3027.7 3149.1
2036 3002.3 3149.1
2037 2976.9 3149.1
2038 3129.3 3250.7
2039 3154.7 3250.7
2040 3180.1 3250.7
2041 3205.5 3250.7
2042 3230.9 3250.7
2043 3256.3 3250.7
2044 3281.7 3250.7
2045 3307.1 3250.7
2046 3383.3 3250.7
2047 3408.7 3250.7
2048 3434.1 3250.7
2049 3459.5 3250.7
2050 3484.9 3250.7
2051 3510.3 3250.7
2052 3535.7 3250.7
2053 3561.1 3250.7
2054 3586.5 3250.7
2055 4069.1 1720.3
2056 4018.3 1720.3
2057 3967.5 1720.3
2058 3967.5 1669.5
2059 4069.1 1669.5
2060 4069.1 1618.7
2061 4018.3 1618.7
2062 3967.5 1618.7
2063 3840.5 1320.3
2064 4069.1 958.3
2065 4018.3 958.3
2066 3967.5 958.3
2067 3865.9 952
2068 3967.5 907.5
2069 4069.1 907.5
2070 4069.1 856.7
2071 4018.3 856.7
2072 3967.5 856.7
2073 3878.6 1155.2
2074 4322.8 1669.5
2075 4348.2 1669.5
2076 4348.2 1694.9
2077 4322.8 1694.9
2078 4322.8 1720.3
2079 4348.2 1720.3
2080 4348.2 1745.7
2081 4322.8 1745.7
2082 4322.8 1771.1
2083 4348.2 1771.1
2084 4348.2 1796.5
2085 4322.8 1796.5
2086 3967.5 2380.7
2087 4018.3 2380.7
2088 4069.1 2380.7
2089 4069.1 2431.5
2090 3967.5 2431.5
2091 3967.5 2482.3
2092 4018.3 2482.3
2093 4069.1 2482.3
2094 3865.9 2526.8
2095 3853.2 2679.2
2096 3967.5 3142.7
2097 4018.3 3142.7
2098 4069.1 3142.7
2099 4069.1 3193.5
2100 3967.5 3193.5
2101 3967.5 3244.3
2102 4018.3 3244.3
2103 4069.1 3244.3
EOF
